Fe1 Li1 O4 P1                           
   1.00000000000000     
    10.2233310034006326   -0.0001288059735433    0.0000340112653890
    -0.0000755764563281    5.9635461645631560    0.0002836992281521
    -0.0000006645513677    0.0002042369675168    4.6792459444082297
   Li   Fe   P    O 
     4     4     4    16
Direct
 -0.0000044458421623  0.0000216207298592  0.9999919468467058
  0.5000051496248212  0.9999816849132160  0.5000058064259807
  0.0000075978748329  0.5000118148135116 -0.0000002334972401
  0.5000002640572907  0.4999622640171185  0.5000105889168845
  0.2805514317904028  0.2499805096629141  0.9783832570977768
  0.7194479195547885  0.7499592392217259  0.0216085874605442
  0.2194552880162117  0.7500294683418817  0.4783793490680708
  0.7805478571304936  0.2500226815654185  0.5216117568551930
  0.0951451924108934  0.2500187566926543  0.4229435190384496
  0.9048380796404007  0.7500461878346506  0.5770662633647490
  0.4048631995698605  0.7499908581899416  0.9229523912189451
  0.5951508782404141  0.2499954817648128  0.0770531281852519
  0.0950873785843662  0.2500213155187781  0.7503478370997183
  0.9048945047009733  0.7500461956511825  0.2496457883008204
  0.4049471958613906  0.7499685141760416  0.2503649720001735
  0.5950805015104900  0.2499757309755311  0.7496266131456968
  0.4555925159699258  0.2499999299377177  0.2069633883593074
  0.5444205853652158  0.7499753203653415  0.7930287202893940
  0.0443952079149138  0.7500262659751720  0.7069819297077241
  0.9555824721138082  0.2500043653958339  0.2930678698414646
  0.1677651521010218  0.0437041290765913  0.2888308009723213
  0.8322131716280482  0.9563063584516207  0.7112271389905360
  0.3322571572706498  0.9562978779626480  0.7888329111899484
  0.6677700810774878  0.0436753780248058  0.2112196186691384
  0.8322051669403081  0.5436831138421204  0.7111441482843187
  0.1677604226453746  0.4563330888250564  0.2887588435743280
  0.6677618008181211  0.4562958232324574  0.2111514460153036
  0.3322582584296537  0.5436660168414175  0.7888016125784881
 
  0.00000000E+00  0.00000000E+00  0.00000000E+00
  0.00000000E+00  0.00000000E+00  0.00000000E+00
  0.00000000E+00  0.00000000E+00  0.00000000E+00
  0.00000000E+00  0.00000000E+00  0.00000000E+00
  0.00000000E+00  0.00000000E+00  0.00000000E+00
  0.00000000E+00  0.00000000E+00  0.00000000E+00
  0.00000000E+00  0.00000000E+00  0.00000000E+00
  0.00000000E+00  0.00000000E+00  0.00000000E+00
  0.00000000E+00  0.00000000E+00  0.00000000E+00
  0.00000000E+00  0.00000000E+00  0.00000000E+00
  0.00000000E+00  0.00000000E+00  0.00000000E+00
  0.00000000E+00  0.00000000E+00  0.00000000E+00
  0.00000000E+00  0.00000000E+00  0.00000000E+00
  0.00000000E+00  0.00000000E+00  0.00000000E+00
  0.00000000E+00  0.00000000E+00  0.00000000E+00
  0.00000000E+00  0.00000000E+00  0.00000000E+00
  0.00000000E+00  0.00000000E+00  0.00000000E+00
  0.00000000E+00  0.00000000E+00  0.00000000E+00
  0.00000000E+00  0.00000000E+00  0.00000000E+00
  0.00000000E+00  0.00000000E+00  0.00000000E+00
  0.00000000E+00  0.00000000E+00  0.00000000E+00
  0.00000000E+00  0.00000000E+00  0.00000000E+00
  0.00000000E+00  0.00000000E+00  0.00000000E+00
  0.00000000E+00  0.00000000E+00  0.00000000E+00
  0.00000000E+00  0.00000000E+00  0.00000000E+00
  0.00000000E+00  0.00000000E+00  0.00000000E+00
  0.00000000E+00  0.00000000E+00  0.00000000E+00
  0.00000000E+00  0.00000000E+00  0.00000000E+00
